Experiments/Data/BVC_ASYMM_Mibs/BVC_n35d18b18j6.mps
NAME	BVC_n35d18b18j6
ROWS
 N 	 OBJROW
 G	 R0000
 G	 R0001
 G	 R0002
 G	 R0003
 G	 R0004
 G	 R0005
 G	 R0006
 G	 R0007
 G	 R0008
 G	 R0009
 G	 R0010
 G	 R0011
 G	 R0012
 G	 R0013
 G	 R0014
 G	 R0015
 G	 R0016
 G	 R0017
 G	 R0018
 G	 R0019
 G	 R0020
 G	 R0021
 G	 R0022
 G	 R0023
 G	 R0024
 G	 R0025
 G	 R0026
 G	 R0027
 G	 R0028
 G	 R0029
 G	 R0030
 G	 R0031
 G	 R0032
 G	 R0033
 G	 R0034
 L	 R0035
 L	 R0036
 L	 R0037
 L	 R0038
 L	 R0039
 L	 R0040
 L	 R0041
 L	 R0042
 L	 R0043
 L	 R0044
 L	 R0045
 L	 R0046
 L	 R0047
 L	 R0048
 L	 R0049
 L	 R0050
 L	 R0051
 L	 R0052
 L	 R0053
 L	 R0054
 L	 R0055
 L	 R0056
 L	 R0057
 L	 R0058
 L	 R0059
 L	 R0060
 L	 R0061
 L	 R0062
 L	 R0063
 L	 R0064
 L	 R0065
 L	 R0066
 L	 R0067
 L	 R0068
 L	 R0069
 L	 R0070
COLUMNS
 C0000	OBJROW	-15	R0000	1	R0001	1	R0002	1	R0003	1	R0004	1	R0005	1	R0006	1	R0007	1	R0008	1	R0009	1	R0010	1	R0011	1	R0012	1	R0013	1	R0014	1	R0015	1	R0016	1	R0017	1	R0018	1	R0019	1	R0020	1	R0021	1	R0025	1	R0026	1	R0028	1	R0029	1	R0030	1	R0034	1	R0035	1	
 C0001	OBJROW	-93	R0000	1	R0001	1	R0002	1	R0003	1	R0004	1	R0005	1	R0006	1	R0007	1	R0008	1	R0009	1	R0010	1	R0011	1	R0012	1	R0013	1	R0014	1	R0015	1	R0016	1	R0017	1	R0018	1	R0019	1	R0020	1	R0021	1	R0022	1	R0023	1	R0024	1	R0025	1	R0026	1	R0027	1	R0028	1	R0029	1	R0030	1	R0031	1	R0032	1	R0033	1	R0034	1	R0036	1	
 C0002	OBJROW	-74	R0000	1	R0001	1	R0002	1	R0003	1	R0004	1	R0005	1	R0006	1	R0007	1	R0008	1	R0009	1	R0010	1	R0011	1	R0012	1	R0013	1	R0014	1	R0015	1	R0016	1	R0017	1	R0018	1	R0019	1	R0020	1	R0022	1	R0023	1	R0024	1	R0025	1	R0026	1	R0027	1	R0028	1	R0032	1	R0033	1	R0034	1	R0037	1	
 C0003	OBJROW	-61	R0000	1	R0001	1	R0002	1	R0003	1	R0004	1	R0005	1	R0006	1	R0007	1	R0008	1	R0009	1	R0010	1	R0011	1	R0012	1	R0013	1	R0014	1	R0015	1	R0016	1	R0017	1	R0018	1	R0019	1	R0020	1	R0021	1	R0022	1	R0023	1	R0024	1	R0025	1	R0027	1	R0030	1	R0031	1	R0032	1	R0033	1	R0034	1	R0038	1	
 C0004	OBJROW	-81	R0000	1	R0001	1	R0002	1	R0003	1	R0004	1	R0005	1	R0006	1	R0007	1	R0008	1	R0009	1	R0010	1	R0011	1	R0012	1	R0013	1	R0014	1	R0015	1	R0016	1	R0017	1	R0018	1	R0019	1	R0020	1	R0021	1	R0022	1	R0023	1	R0024	1	R0025	1	R0026	1	R0027	1	R0029	1	R0031	1	R0033	1	R0039	1	
 C0005	OBJROW	-25	R0000	1	R0001	1	R0002	1	R0003	1	R0004	1	R0005	1	R0006	1	R0007	1	R0008	1	R0009	1	R0010	1	R0011	1	R0012	1	R0013	1	R0014	1	R0015	1	R0016	1	R0017	1	R0018	1	R0020	1	R0021	1	R0022	1	R0023	1	R0024	1	R0028	1	R0029	1	R0030	1	R0031	1	R0032	1	R0033	1	R0040	1	
 C0006	OBJROW	-76	R0000	1	R0001	1	R0002	1	R0003	1	R0004	1	R0005	1	R0006	1	R0007	1	R0008	1	R0009	1	R0010	1	R0011	1	R0012	1	R0013	1	R0014	1	R0015	1	R0016	1	R0017	1	R0018	1	R0019	1	R0020	1	R0022	1	R0023	1	R0024	1	R0026	1	R0027	1	R0028	1	R0029	1	R0030	1	R0031	1	R0033	1	R0034	1	R0041	1	
 C0007	OBJROW	-73	R0000	1	R0001	1	R0002	1	R0003	1	R0004	1	R0005	1	R0006	1	R0007	1	R0008	1	R0009	1	R0010	1	R0011	1	R0012	1	R0013	1	R0014	1	R0015	1	R0016	1	R0017	1	R0018	1	R0019	1	R0021	1	R0022	1	R0023	1	R0025	1	R0026	1	R0027	1	R0028	1	R0029	1	R0031	1	R0032	1	R0034	1	R0042	1	
 C0008	OBJROW	-35	R0000	1	R0001	1	R0002	1	R0003	1	R0004	1	R0005	1	R0006	1	R0007	1	R0008	1	R0009	1	R0010	1	R0011	1	R0012	1	R0013	1	R0014	1	R0015	1	R0016	1	R0017	1	R0018	1	R0019	1	R0020	1	R0021	1	R0023	1	R0024	1	R0028	1	R0030	1	R0031	1	R0033	1	R0043	1	
 C0009	OBJROW	-82	R0000	1	R0001	1	R0002	1	R0003	1	R0004	1	R0005	1	R0006	1	R0007	1	R0008	1	R0009	1	R0010	1	R0011	1	R0012	1	R0013	1	R0014	1	R0015	1	R0016	1	R0017	1	R0018	1	R0019	1	R0020	1	R0021	1	R0022	1	R0023	1	R0025	1	R0026	1	R0027	1	R0028	1	R0030	1	R0031	1	R0044	1	
 C0010	OBJROW	-64	R0000	1	R0001	1	R0002	1	R0003	1	R0004	1	R0005	1	R0006	1	R0007	1	R0008	1	R0009	1	R0010	1	R0011	1	R0012	1	R0013	1	R0014	1	R0015	1	R0016	1	R0017	1	R0018	1	R0019	1	R0020	1	R0021	1	R0022	1	R0023	1	R0024	1	R0026	1	R0027	1	R0028	1	R0030	1	R0045	1	
 C0011	OBJROW	-79	R0000	1	R0001	1	R0002	1	R0003	1	R0004	1	R0005	1	R0006	1	R0007	1	R0008	1	R0009	1	R0010	1	R0011	1	R0012	1	R0013	1	R0014	1	R0015	1	R0016	1	R0017	1	R0018	1	R0019	1	R0020	1	R0021	1	R0023	1	R0024	1	R0025	1	R0027	1	R0028	1	R0029	1	R0030	1	R0032	1	R0034	1	R0046	1	
 C0012	OBJROW	-8	R0000	1	R0001	1	R0002	1	R0003	1	R0004	1	R0005	1	R0006	1	R0007	1	R0008	1	R0009	1	R0010	1	R0011	1	R0012	1	R0013	1	R0014	1	R0015	1	R0016	1	R0017	1	R0018	1	R0019	1	R0020	1	R0021	1	R0022	1	R0026	1	R0028	1	R0029	1	R0034	1	R0047	1	
 C0013	OBJROW	-97	R0000	1	R0001	1	R0002	1	R0003	1	R0004	1	R0005	1	R0006	1	R0007	1	R0008	1	R0009	1	R0010	1	R0011	1	R0012	1	R0013	1	R0014	1	R0015	1	R0016	1	R0017	1	R0018	1	R0019	1	R0021	1	R0022	1	R0023	1	R0024	1	R0027	1	R0028	1	R0029	1	R0032	1	R0048	1	
 C0014	OBJROW	-82	R0000	1	R0001	1	R0002	1	R0003	1	R0004	1	R0005	1	R0006	1	R0007	1	R0008	1	R0009	1	R0010	1	R0011	1	R0012	1	R0013	1	R0014	1	R0015	1	R0016	1	R0017	1	R0018	1	R0019	1	R0020	1	R0021	1	R0022	1	R0023	1	R0024	1	R0025	1	R0026	1	R0028	1	R0029	1	R0030	1	R0031	1	R0049	1	
 C0015	OBJROW	-44	R0000	1	R0001	1	R0002	1	R0003	1	R0004	1	R0005	1	R0006	1	R0007	1	R0008	1	R0009	1	R0010	1	R0011	1	R0012	1	R0013	1	R0014	1	R0015	1	R0016	1	R0017	1	R0018	1	R0019	1	R0020	1	R0021	1	R0022	1	R0023	1	R0024	1	R0027	1	R0028	1	R0029	1	R0031	1	R0032	1	R0034	1	R0050	1	
 C0016	OBJROW	-25	R0000	1	R0001	1	R0002	1	R0003	1	R0004	1	R0005	1	R0006	1	R0007	1	R0008	1	R0009	1	R0010	1	R0011	1	R0012	1	R0013	1	R0014	1	R0015	1	R0016	1	R0017	1	R0018	1	R0019	1	R0020	1	R0021	1	R0022	1	R0024	1	R0025	1	R0026	1	R0029	1	R0030	1	R0031	1	R0032	1	R0051	1	
 C0017	OBJROW	-68	R0000	1	R0001	1	R0002	1	R0003	1	R0004	1	R0005	1	R0006	1	R0007	1	R0008	1	R0009	1	R0010	1	R0011	1	R0012	1	R0013	1	R0014	1	R0015	1	R0016	1	R0017	1	R0018	1	R0019	1	R0020	1	R0021	1	R0022	1	R0023	1	R0024	1	R0025	1	R0026	1	R0027	1	R0029	1	R0030	1	R0031	1	R0032	1	R0033	1	R0034	1	R0052	1	
 C0018	OBJROW	-30	R0000	1	R0001	1	R0002	1	R0003	1	R0004	1	R0005	1	R0006	1	R0007	1	R0008	1	R0009	1	R0010	1	R0011	1	R0012	1	R0013	1	R0014	1	R0015	1	R0016	1	R0017	1	R0018	1	R0019	1	R0020	1	R0022	1	R0023	1	R0024	1	R0025	1	R0026	1	R0027	1	R0031	1	R0033	1	R0034	1	R0053	1	
 C0019	OBJROW	-52	R0000	1	R0001	1	R0002	1	R0003	1	R0004	1	R0006	1	R0007	1	R0008	1	R0009	1	R0010	1	R0011	1	R0012	1	R0013	1	R0014	1	R0015	1	R0016	1	R0017	1	R0018	1	R0019	1	R0020	1	R0021	1	R0022	1	R0023	1	R0024	1	R0025	1	R0026	1	R0027	1	R0028	1	R0031	1	R0033	1	R0034	1	R0054	1	
 C0020	OBJROW	-57	R0000	1	R0001	1	R0002	1	R0003	1	R0004	1	R0005	1	R0006	1	R0008	1	R0009	1	R0010	1	R0011	1	R0012	1	R0014	1	R0015	1	R0016	1	R0017	1	R0018	1	R0019	1	R0020	1	R0021	1	R0024	1	R0025	1	R0028	1	R0029	1	R0030	1	R0032	1	R0034	1	R0055	1	
 C0021	OBJROW	-56	R0000	1	R0001	1	R0003	1	R0004	1	R0005	1	R0007	1	R0008	1	R0009	1	R0010	1	R0011	1	R0012	1	R0013	1	R0014	1	R0015	1	R0016	1	R0017	1	R0019	1	R0020	1	R0021	1	R0022	1	R0023	1	R0025	1	R0026	1	R0027	1	R0029	1	R0031	1	R0032	1	R0033	1	R0056	1	
 C0022	OBJROW	-95	R0001	1	R0002	1	R0003	1	R0004	1	R0005	1	R0006	1	R0007	1	R0009	1	R0010	1	R0012	1	R0013	1	R0014	1	R0015	1	R0016	1	R0017	1	R0018	1	R0019	1	R0021	1	R0022	1	R0025	1	R0026	1	R0027	1	R0029	1	R0030	1	R0031	1	R0032	1	R0033	1	R0057	1	
 C0023	OBJROW	-80	R0001	1	R0002	1	R0003	1	R0004	1	R0005	1	R0006	1	R0007	1	R0008	1	R0009	1	R0010	1	R0011	1	R0013	1	R0014	1	R0015	1	R0017	1	R0018	1	R0019	1	R0021	1	R0023	1	R0024	1	R0025	1	R0026	1	R0028	1	R0030	1	R0032	1	R0033	1	R0034	1	R0058	1	
 C0024	OBJROW	-50	R0001	1	R0002	1	R0003	1	R0004	1	R0005	1	R0006	1	R0008	1	R0010	1	R0011	1	R0013	1	R0014	1	R0015	1	R0016	1	R0017	1	R0018	1	R0019	1	R0020	1	R0023	1	R0024	1	R0025	1	R0030	1	R0033	1	R0059	1	
 C0025	OBJROW	-40	R0000	1	R0001	1	R0002	1	R0003	1	R0004	1	R0007	1	R0009	1	R0011	1	R0014	1	R0016	1	R0017	1	R0018	1	R0019	1	R0020	1	R0021	1	R0022	1	R0023	1	R0024	1	R0025	1	R0026	1	R0027	1	R0029	1	R0032	1	R0033	1	R0034	1	R0060	1	
 C0026	OBJROW	-14	R0000	1	R0001	1	R0002	1	R0004	1	R0006	1	R0007	1	R0009	1	R0010	1	R0012	1	R0014	1	R0016	1	R0017	1	R0018	1	R0019	1	R0021	1	R0022	1	R0023	1	R0025	1	R0026	1	R0027	1	R0031	1	R0033	1	R0061	1	
 C0027	OBJROW	-13	R0001	1	R0002	1	R0003	1	R0004	1	R0006	1	R0007	1	R0009	1	R0010	1	R0011	1	R0013	1	R0015	1	R0017	1	R0018	1	R0019	1	R0021	1	R0022	1	R0025	1	R0026	1	R0027	1	R0028	1	R0033	1	R0062	1	
 C0028	OBJROW	-30	R0000	1	R0001	1	R0002	1	R0005	1	R0006	1	R0007	1	R0008	1	R0009	1	R0010	1	R0011	1	R0012	1	R0013	1	R0014	1	R0015	1	R0019	1	R0020	1	R0023	1	R0027	1	R0028	1	R0029	1	R0030	1	R0032	1	R0034	1	R0063	1	
 C0029	OBJROW	-70	R0000	1	R0001	1	R0004	1	R0005	1	R0006	1	R0007	1	R0011	1	R0012	1	R0013	1	R0014	1	R0015	1	R0016	1	R0017	1	R0020	1	R0021	1	R0022	1	R0025	1	R0028	1	R0029	1	R0030	1	R0031	1	R0034	1	R0064	1	
 C0030	OBJROW	-7	R0000	1	R0001	1	R0003	1	R0005	1	R0006	1	R0008	1	R0009	1	R0010	1	R0011	1	R0014	1	R0016	1	R0017	1	R0020	1	R0022	1	R0023	1	R0024	1	R0028	1	R0029	1	R0030	1	R0032	1	R0065	1	
 C0031	OBJROW	-85	R0001	1	R0003	1	R0004	1	R0005	1	R0006	1	R0007	1	R0008	1	R0009	1	R0014	1	R0015	1	R0016	1	R0017	1	R0018	1	R0019	1	R0021	1	R0022	1	R0026	1	R0029	1	R0031	1	R0032	1	R0033	1	R0034	1	R0066	1	
 C0032	OBJROW	-10	R0001	1	R0002	1	R0003	1	R0005	1	R0007	1	R0011	1	R0013	1	R0015	1	R0016	1	R0017	1	R0020	1	R0021	1	R0022	1	R0023	1	R0025	1	R0028	1	R0030	1	R0031	1	R0032	1	R0067	1	
 C0033	OBJROW	-11	R0001	1	R0002	1	R0003	1	R0004	1	R0005	1	R0006	1	R0008	1	R0017	1	R0018	1	R0019	1	R0021	1	R0022	1	R0023	1	R0024	1	R0025	1	R0026	1	R0027	1	R0031	1	R0033	1	R0068	1	
 C0034	OBJROW	-85	R0000	1	R0001	1	R0002	1	R0003	1	R0006	1	R0007	1	R0011	1	R0012	1	R0015	1	R0017	1	R0018	1	R0019	1	R0020	1	R0023	1	R0025	1	R0028	1	R0029	1	R0031	1	R0034	1	R0069	1	
 C0035	R0035	1	R0070	1	
 C0036	R0036	1	R0070	1	
 C0037	R0037	1	R0070	1	
 C0038	R0038	1	R0070	1	
 C0039	R0039	1	R0070	1	
 C0040	R0040	1	R0070	1	
 C0041	R0041	1	R0070	1	
 C0042	R0042	1	R0070	1	
 C0043	R0043	1	R0070	1	
 C0044	R0044	1	R0070	1	
 C0045	R0045	1	R0070	1	
 C0046	R0046	1	R0070	1	
 C0047	R0047	1	R0070	1	
 C0048	R0048	1	R0070	1	
 C0049	R0049	1	R0070	1	
 C0050	R0050	1	R0070	1	
 C0051	R0051	1	R0070	1	
 C0052	R0052	1	R0070	1	
 C0053	R0053	1	R0070	1	
 C0054	R0054	1	R0070	1	
 C0055	R0055	1	R0070	1	
 C0056	R0056	1	R0070	1	
 C0057	R0057	1	R0070	1	
 C0058	R0058	1	R0070	1	
 C0059	R0059	1	R0070	1	
 C0060	R0060	1	R0070	1	
 C0061	R0061	1	R0070	1	
 C0062	R0062	1	R0070	1	
 C0063	R0063	1	R0070	1	
 C0064	R0064	1	R0070	1	
 C0065	R0065	1	R0070	1	
 C0066	R0066	1	R0070	1	
 C0067	R0067	1	R0070	1	
 C0068	R0068	1	R0070	1	
 C0069	R0069	1	R0070	1	
RHS
 RHS	 R0000	1
 RHS	 R0001	1
 RHS	 R0002	1
 RHS	 R0003	1
 RHS	 R0004	1
 RHS	 R0005	1
 RHS	 R0006	1
 RHS	 R0007	1
 RHS	 R0008	1
 RHS	 R0009	1
 RHS	 R0010	1
 RHS	 R0011	1
 RHS	 R0012	1
 RHS	 R0013	1
 RHS	 R0014	1
 RHS	 R0015	1
 RHS	 R0016	1
 RHS	 R0017	1
 RHS	 R0018	1
 RHS	 R0019	1
 RHS	 R0020	1
 RHS	 R0021	1
 RHS	 R0022	1
 RHS	 R0023	1
 RHS	 R0024	1
 RHS	 R0025	1
 RHS	 R0026	1
 RHS	 R0027	1
 RHS	 R0028	1
 RHS	 R0029	1
 RHS	 R0030	1
 RHS	 R0031	1
 RHS	 R0032	1
 RHS	 R0033	1
 RHS	 R0034	1
 RHS	 R0035	1
 RHS	 R0036	1
 RHS	 R0037	1
 RHS	 R0038	1
 RHS	 R0039	1
 RHS	 R0040	1
 RHS	 R0041	1
 RHS	 R0042	1
 RHS	 R0043	1
 RHS	 R0044	1
 RHS	 R0045	1
 RHS	 R0046	1
 RHS	 R0047	1
 RHS	 R0048	1
 RHS	 R0049	1
 RHS	 R0050	1
 RHS	 R0051	1
 RHS	 R0052	1
 RHS	 R0053	1
 RHS	 R0054	1
 RHS	 R0055	1
 RHS	 R0056	1
 RHS	 R0057	1
 RHS	 R0058	1
 RHS	 R0059	1
 RHS	 R0060	1
 RHS	 R0061	1
 RHS	 R0062	1
 RHS	 R0063	1
 RHS	 R0064	1
 RHS	 R0065	1
 RHS	 R0066	1
 RHS	 R0067	1
 RHS	 R0068	1
 RHS	 R0069	1
 RHS	 R0070	18
BOUNDS
 BV BOUND	 C0000	1 
 BV BOUND	 C0001	1 
 BV BOUND	 C0002	1 
 BV BOUND	 C0003	1 
 BV BOUND	 C0004	1 
 BV BOUND	 C0005	1 
 BV BOUND	 C0006	1 
 BV BOUND	 C0007	1 
 BV BOUND	 C0008	1 
 BV BOUND	 C0009	1 
 BV BOUND	 C0010	1 
 BV BOUND	 C0011	1 
 BV BOUND	 C0012	1 
 BV BOUND	 C0013	1 
 BV BOUND	 C0014	1 
 BV BOUND	 C0015	1 
 BV BOUND	 C0016	1 
 BV BOUND	 C0017	1 
 BV BOUND	 C0018	1 
 BV BOUND	 C0019	1 
 BV BOUND	 C0020	1 
 BV BOUND	 C0021	1 
 BV BOUND	 C0022	1 
 BV BOUND	 C0023	1 
 BV BOUND	 C0024	1 
 BV BOUND	 C0025	1 
 BV BOUND	 C0026	1 
 BV BOUND	 C0027	1 
 BV BOUND	 C0028	1 
 BV BOUND	 C0029	1 
 BV BOUND	 C0030	1 
 BV BOUND	 C0031	1 
 BV BOUND	 C0032	1 
 BV BOUND	 C0033	1 
 BV BOUND	 C0034	1 
 BV BOUND	 C0035	1 
 BV BOUND	 C0036	1 
 BV BOUND	 C0037	1 
 BV BOUND	 C0038	1 
 BV BOUND	 C0039	1 
 BV BOUND	 C0040	1 
 BV BOUND	 C0041	1 
 BV BOUND	 C0042	1 
 BV BOUND	 C0043	1 
 BV BOUND	 C0044	1 
 BV BOUND	 C0045	1 
 BV BOUND	 C0046	1 
 BV BOUND	 C0047	1 
 BV BOUND	 C0048	1 
 BV BOUND	 C0049	1 
 BV BOUND	 C0050	1 
 BV BOUND	 C0051	1 
 BV BOUND	 C0052	1 
 BV BOUND	 C0053	1 
 BV BOUND	 C0054	1 
 BV BOUND	 C0055	1 
 BV BOUND	 C0056	1 
 BV BOUND	 C0057	1 
 BV BOUND	 C0058	1 
 BV BOUND	 C0059	1 
 BV BOUND	 C0060	1 
 BV BOUND	 C0061	1 
 BV BOUND	 C0062	1 
 BV BOUND	 C0063	1 
 BV BOUND	 C0064	1 
 BV BOUND	 C0065	1 
 BV BOUND	 C0066	1 
 BV BOUND	 C0067	1 
 BV BOUND	 C0068	1 
 BV BOUND	 C0069	1 
ENDATA
