Experiments/Data/BVC_ASYMM_Mibs/BVC_n35d18b18j6.txt
N 35
M 70
LC 0
LC 1
LC 2
LC 3
LC 4
LC 5
LC 6
LC 7
LC 8
LC 9
LC 10
LC 11
LC 12
LC 13
LC 14
LC 15
LC 16
LC 17
LC 18
LC 19
LC 20
LC 21
LC 22
LC 23
LC 24
LC 25
LC 26
LC 27
LC 28
LC 29
LC 30
LC 31
LC 32
LC 33
LC 34
LR 0
LR 1
LR 2
LR 3
LR 4
LR 5
LR 6
LR 7
LR 8
LR 9
LR 10
LR 11
LR 12
LR 13
LR 14
LR 15
LR 16
LR 17
LR 18
LR 19
LR 20
LR 21
LR 22
LR 23
LR 24
LR 25
LR 26
LR 27
LR 28
LR 29
LR 30
LR 31
LR 32
LR 33
LR 34
LR 35
LR 36
LR 37
LR 38
LR 39
LR 40
LR 41
LR 42
LR 43
LR 44
LR 45
LR 46
LR 47
LR 48
LR 49
LR 50
LR 51
LR 52
LR 53
LR 54
LR 55
LR 56
LR 57
LR 58
LR 59
LR 60
LR 61
LR 62
LR 63
LR 64
LR 65
LR 66
LR 67
LR 68
LR 69
LO 43
LO 58
LO 51
LO 65
LO 73
LO 75
LO 99
LO 45
LO 24
LO 27
LO 68
LO 55
LO 34
LO 70
LO 53
LO 75
LO 79
LO 31
LO 97
LO 58
LO 83
LO 64
LO 73
LO 8
LO 49
LO 97
LO 75
LO 3
LO 74
LO 95
LO 7
LO 50
LO 50
LO 59
LO 99
OS 1
